(set-logic QF_S)
(declare-fun var0 () String)
(declare-fun var1 () String)
(declare-fun var2 () String)
(declare-fun var3 () String)
(declare-fun var4 () String)
(declare-fun var5 () String)
(declare-fun var6 () String)
(declare-fun var7 () String)
(declare-fun var8 () String)
(declare-fun var9 () String)
(declare-fun var10 () String)
(declare-fun var11 () String)
(declare-fun var12 () String)
(declare-fun var13 () String)
(declare-fun var14 () String)
(declare-fun var15 () String)
(declare-fun var16 () String)
(declare-fun var17 () String)
(declare-fun var18 () String)
(declare-fun var19 () String)
(declare-fun var20 () String)
(declare-fun var21 () String)
(declare-fun var22 () String)
(declare-fun var23 () String)
(declare-fun var24 () String)
(declare-fun var25 () String)
(declare-fun var26 () String)
(declare-fun var27 () String)
(declare-fun var28 () String)
(declare-fun var29 () String)
(declare-fun var30 () String)
(declare-fun var31 () String)
(declare-fun var32 () String)
(declare-fun var33 () String)
(declare-fun var34 () String)
(declare-fun var35 () String)
(declare-fun var36 () String)
(declare-fun var37 () String)
(declare-fun var38 () String)
(declare-fun var39 () String)
(declare-fun var40 () String)
(declare-fun var41 () String)
(declare-fun var42 () String)
(declare-fun var43 () String)
(declare-fun var44 () String)
(declare-fun var45 () String)
(declare-fun var46 () String)
(declare-fun var47 () String)
(declare-fun var48 () String)
(declare-fun var49 () String)
(declare-fun var50 () String)
(declare-fun var51 () String)
(declare-fun var52 () String)
(declare-fun var53 () String)
(declare-fun var54 () String)
(declare-fun var55 () String)
(declare-fun var56 () String)
(declare-fun var57 () String)
(declare-fun var58 () String)
(declare-fun var59 () String)
(declare-fun var60 () String)
(assert (= var0 (Concat var1 var2)))
(assert (= var2 (Concat var3 var4)))
(assert (= var4 (Concat var5 var6)))
(assert (= var6 (Concat var7 var8)))
(assert (= var8 (Concat var9 var10)))
(assert (= var10 (Concat var11 var12)))
(assert (= var12 (Concat var13 var14)))
(assert (= var14 (Concat var15 var16)))
(assert (= var16 (Concat var17 var18)))
(assert (= var18 (Concat var19 var20)))
(assert (= var20 (Concat var21 var22)))
(assert (= var22 (Concat var23 var24)))
(assert (= var24 (Concat var25 var26)))
(assert (= var26 (Concat var27 var28)))
(assert (= var28 (Concat var29 var30)))
(assert (= var30 (Concat var31 var32)))
(assert (= var32 (Concat var33 var34)))
(assert (= var34 (Concat var35 var36)))
(assert (= var36 (Concat var37 var38)))
(assert (= var38 (Concat var39 var40)))
(assert (= var40 (Concat var41 var42)))
(assert (= var42 (Concat var43 var44)))
(assert (= var44 (Concat var45 var46)))
(assert (= var46 (Concat var47 var48)))
(assert (= var48 (Concat var49 var50)))
(assert (= var50 (Concat var51 var52)))
(assert (= var52 (Concat var53 var54)))
(assert (= var54 (Concat var55 var56)))
(assert (= var56 (Concat var57 var58)))
(assert (= var58 (Concat var59 var60)))
(assert (= var0 "solution"))
(assert (= "%" (CharAt var34 761)))
(assert (= "$" (CharAt var3 735)))
(assert (= "k" (CharAt var11 617)))
(assert (= "^" (CharAt var29 512)))
(assert (= "s" (CharAt var28 757)))
(assert (= "\\" (CharAt var19 22)))
(assert (= "f" (CharAt var5 479)))
(assert (= "7" (CharAt var43 745)))
(assert (= "4" (CharAt var3 326)))
(assert (= "I" (CharAt var31 547)))
(assert (= "z" (CharAt var56 11)))
(assert (= "9" (CharAt var30 320)))
(assert (= "V" (CharAt var48 235)))
(assert (= "*" (CharAt var47 1)))
(assert (= "|" (CharAt var49 937)))
(assert (= "8" (CharAt var9 149)))
(assert (= "=" (CharAt var12 495)))
(assert (= "H" (CharAt var29 518)))
(assert (= "M" (CharAt var29 426)))
(assert (= "@" (CharAt var55 471)))
(assert (= "O" (CharAt var60 254)))
(assert (= "<" (CharAt var41 486)))
(assert (= "_" (CharAt var55 698)))
(assert (= "6" (CharAt var50 810)))
(assert (= "B" (CharAt var5 210)))
(assert (= "o" (CharAt var26 232)))
(assert (= "P" (CharAt var55 876)))
(assert (= "H" (CharAt var17 24)))
(assert (= "G" (CharAt var36 382)))
(assert (= "I" (CharAt var37 787)))
(assert (= "H" (CharAt var19 211)))
(assert (= "G" (CharAt var50 732)))
(assert (= "f" (CharAt var11 501)))
(assert (= "w" (CharAt var12 273)))
(assert (= "u" (CharAt var9 437)))
(assert (= "h" (CharAt var36 892)))
(assert (= "}" (CharAt var13 717)))
(assert (= "l" (CharAt var1 631)))
(assert (= "v" (CharAt var48 457)))
(assert (= "|" (CharAt var12 516)))
(assert (= "K" (CharAt var27 501)))
(assert (= "l" (CharAt var17 180)))
(assert (= "W" (CharAt var20 105)))
(assert (= "," (CharAt var60 80)))
(assert (= "l" (CharAt var19 609)))
(assert (= "^" (CharAt var1 426)))
(assert (= "s" (CharAt var34 608)))
(assert (= "@" (CharAt var43 722)))
(assert (= "o" (CharAt var39 382)))
(assert (= "N" (CharAt var2 42)))
(assert (= "f" (CharAt var48 510)))
(assert (= "," (CharAt var53 720)))
(assert (= "B" (CharAt var47 162)))
(assert (= "%" (CharAt var16 732)))
(assert (= "r" (CharAt var47 166)))
(assert (= "b" (CharAt var25 770)))
(assert (= "k" (CharAt var12 839)))
(assert (= "F" (CharAt var5 224)))
(assert (= "Y" (CharAt var2 0)))
(assert (= "s" (CharAt var44 325)))
(assert (= "d" (CharAt var22 598)))
(assert (= "R" (CharAt var50 671)))
(assert (= "A" (CharAt var58 714)))
(assert (= "O" (CharAt var15 59)))
(assert (= "g" (CharAt var14 258)))
(assert (= "^" (CharAt var60 38)))
(assert (= "T" (CharAt var52 439)))
(assert (= "5" (CharAt var8 378)))
(assert (= "@" (CharAt var57 786)))
(assert (= "f" (CharAt var51 361)))
(assert (= "`" (CharAt var59 66)))
(assert (= "<" (CharAt var56 240)))
(assert (= "a" (CharAt var6 415)))
(assert (= "*" (CharAt var20 341)))
(assert (= "x" (CharAt var19 639)))
(assert (= "m" (CharAt var38 991)))
(assert (= "]" (CharAt var7 586)))
(assert (= "@" (CharAt var39 692)))
(assert (= "." (CharAt var3 547)))
(assert (= "H" (CharAt var36 688)))
(assert (= "7" (CharAt var20 381)))
(assert (= "S" (CharAt var6 806)))
(assert (= "N" (CharAt var17 223)))
(assert (= "6" (CharAt var12 453)))
(assert (= "R" (CharAt var37 185)))
(assert (= "v" (CharAt var10 484)))
(assert (= "H" (CharAt var5 162)))
(assert (= ">" (CharAt var20 234)))
(assert (= "z" (CharAt var9 217)))
(assert (= "[" (CharAt var8 233)))
(assert (= "x" (CharAt var12 6)))
(assert (= "[" (CharAt var46 752)))
(assert (= ")" (CharAt var10 401)))
(assert (= "8" (CharAt var48 472)))
(assert (= "!" (CharAt var31 122)))
(assert (= "p" (CharAt var17 45)))
(assert (= "&" (CharAt var31 511)))
(assert (= ">" (CharAt var7 367)))
(assert (= "l" (CharAt var54 429)))
(assert (= "G" (CharAt var1 441)))
(assert (= "s" (CharAt var15 117)))
(assert (= "O" (CharAt var2 68)))
(assert (= "b" (CharAt var25 66)))
(assert (= "]" (CharAt var59 820)))
(assert (= "e" (CharAt var17 339)))
(assert (= "W" (CharAt var1 28)))
(assert (= "q" (CharAt var52 547)))
(assert (= "7" (CharAt var21 102)))
(assert (= "u" (CharAt var28 627)))
(assert (= "u" (CharAt var41 533)))
(assert (= "C" (CharAt var36 829)))
(assert (= "l" (CharAt var6 915)))
(assert (= "u" (CharAt var9 786)))
(assert (= "I" (CharAt var45 996)))
(assert (= "E" (CharAt var46 67)))
(assert (= "/" (CharAt var0 286)))
(assert (= "p" (CharAt var25 138)))
(assert (= "!" (CharAt var8 327)))
(assert (= "F" (CharAt var19 909)))
(assert (= "v" (CharAt var7 496)))
(assert (= "/" (CharAt var31 569)))
(assert (= "o" (CharAt var28 940)))
(assert (= "N" (CharAt var51 227)))
(assert (= "v" (CharAt var51 702)))
(assert (= "l" (CharAt var35 489)))
(assert (= "w" (CharAt var2 922)))
(assert (= "Y" (CharAt var51 632)))
(assert (= "U" (CharAt var13 175)))
(assert (= "v" (CharAt var37 62)))
(assert (= "X" (CharAt var43 435)))
(assert (= "w" (CharAt var24 94)))
(assert (= "r" (CharAt var59 860)))
(assert (= "&" (CharAt var53 448)))
(assert (= "9" (CharAt var42 450)))
(assert (= "}" (CharAt var22 844)))
(assert (= "S" (CharAt var47 945)))
(assert (= "Q" (CharAt var49 806)))
(assert (= "J" (CharAt var15 779)))
(assert (= "c" (CharAt var49 378)))
(assert (= "L" (CharAt var34 773)))
(assert (= "X" (CharAt var38 285)))
(assert (= "B" (CharAt var7 754)))
(assert (= "C" (CharAt var23 733)))
(assert (= "k" (CharAt var33 358)))
(assert (= "z" (CharAt var1 357)))
(assert (= "A" (CharAt var28 74)))
(assert (= "N" (CharAt var29 882)))
(assert (= "^" (CharAt var56 249)))
(assert (= "|" (CharAt var27 183)))
(assert (= "t" (CharAt var27 420)))
(assert (= "=" (CharAt var22 49)))
(assert (= "T" (CharAt var10 425)))
(assert (= "a" (CharAt var1 876)))
(assert (= "+" (CharAt var15 473)))
(assert (= "F" (CharAt var55 451)))
(assert (= "[" (CharAt var5 500)))
(assert (= "M" (CharAt var9 196)))
(assert (= "." (CharAt var33 450)))
(assert (= ">" (CharAt var22 806)))
(assert (= "8" (CharAt var4 704)))
(assert (= "." (CharAt var60 810)))
(assert (= "9" (CharAt var0 85)))
(assert (= "\"" (CharAt var41 336)))
(assert (= "$" (CharAt var13 527)))
(assert (= "B" (CharAt var40 526)))
(assert (= "/" (CharAt var29 883)))
(assert (= "0" (CharAt var1 230)))
(assert (= "g" (CharAt var8 809)))
(assert (= "@" (CharAt var39 126)))
(assert (= "c" (CharAt var26 43)))
(assert (= "w" (CharAt var55 437)))
(assert (= "3" (CharAt var44 12)))
(assert (= "Y" (CharAt var18 119)))
(assert (= "Z" (CharAt var25 109)))
(assert (= "|" (CharAt var9 288)))
(assert (= "^" (CharAt var12 812)))
(assert (= "x" (CharAt var52 766)))
(assert (= ":" (CharAt var15 772)))
(assert (= "7" (CharAt var59 106)))
(assert (= "k" (CharAt var15 344)))
(assert (= "D" (CharAt var17 335)))
(assert (= "j" (CharAt var7 893)))
(assert (= "N" (CharAt var16 608)))
(assert (= "x" (CharAt var25 71)))
(assert (= "$" (CharAt var3 473)))
(assert (= "A" (CharAt var41 179)))
(assert (= "D" (CharAt var28 695)))
(assert (= "#" (CharAt var24 539)))
(assert (= "^" (CharAt var6 374)))
(assert (= ";" (CharAt var36 501)))
(assert (= "^" (CharAt var23 502)))
(assert (= "O" (CharAt var9 488)))
(assert (= "_" (CharAt var31 598)))
(assert (= "{" (CharAt var24 124)))
(assert (= "F" (CharAt var59 291)))
(assert (= "9" (CharAt var15 489)))
(assert (= "{" (CharAt var40 411)))
(assert (= "?" (CharAt var20 295)))
(assert (= "1" (CharAt var23 22)))
(assert (= "m" (CharAt var53 193)))
(assert (= "L" (CharAt var40 893)))
(assert (= "x" (CharAt var36 419)))
(assert (= "u" (CharAt var55 972)))
(assert (= "I" (CharAt var20 584)))
(assert (= "@" (CharAt var31 485)))
(assert (= "~" (CharAt var21 468)))
(assert (= "o" (CharAt var3 535)))
(assert (= "H" (CharAt var51 109)))
(assert (= "D" (CharAt var58 978)))
(assert (= "z" (CharAt var44 779)))
(assert (= "K" (CharAt var51 141)))
(assert (= "z" (CharAt var14 814)))
(assert (= "b" (CharAt var45 578)))
(assert (= "T" (CharAt var13 209)))
(assert (= "'" (CharAt var44 516)))
(assert (= "V" (CharAt var33 471)))
(assert (= "v" (CharAt var58 179)))
(assert (= "7" (CharAt var33 440)))
(assert (= "c" (CharAt var29 942)))
(assert (= "#" (CharAt var60 358)))
(assert (= "R" (CharAt var7 723)))
(assert (= "g" (CharAt var27 24)))
(assert (= "I" (CharAt var24 611)))
(assert (= "\"" (CharAt var54 156)))
(assert (= "}" (CharAt var21 181)))
(assert (= "2" (CharAt var32 183)))
(assert (= ")" (CharAt var17 911)))
(assert (= "z" (CharAt var29 43)))
(assert (= "a" (CharAt var7 798)))
(assert (= "^" (CharAt var17 614)))
(assert (= "o" (CharAt var3 593)))
(assert (= "^" (CharAt var57 620)))
(assert (= "P" (CharAt var58 57)))
(assert (= "." (CharAt var55 41)))
(assert (= "\\" (CharAt var35 755)))
(assert (= "b" (CharAt var11 517)))
(assert (= "J" (CharAt var51 873)))
(assert (= "2" (CharAt var12 537)))
(assert (= "k" (CharAt var49 827)))
(assert (= "T" (CharAt var7 925)))
(assert (= "b" (CharAt var54 838)))
(assert (= "r" (CharAt var46 852)))
(assert (= "0" (CharAt var43 744)))
(assert (= "o" (CharAt var8 907)))
(assert (= "w" (CharAt var23 328)))
(assert (= "," (CharAt var42 540)))
(assert (= "I" (CharAt var60 592)))
(assert (= "j" (CharAt var21 125)))
(assert (= "x" (CharAt var35 532)))
(assert (= ")" (CharAt var1 511)))
(assert (= "R" (CharAt var55 610)))
(assert (= "V" (CharAt var19 79)))
(assert (= "-" (CharAt var54 186)))
(assert (= "7" (CharAt var55 586)))
(assert (= "g" (CharAt var52 105)))
(assert (= "Y" (CharAt var38 552)))
(assert (= "s" (CharAt var49 15)))
(assert (= "W" (CharAt var7 580)))
(assert (= "W" (CharAt var30 8)))
(assert (= "]" (CharAt var43 365)))
(assert (= ";" (CharAt var31 236)))
(assert (= "B" (CharAt var29 225)))
(assert (= "j" (CharAt var19 104)))
(assert (= "X" (CharAt var3 702)))
(assert (= "d" (CharAt var24 465)))
(assert (= "e" (CharAt var50 319)))
(assert (= "t" (CharAt var32 263)))
(assert (= "=" (CharAt var8 990)))
(assert (= "\\" (CharAt var48 745)))
(assert (= "^" (CharAt var20 597)))
(assert (= "o" (CharAt var14 629)))
(assert (= "(" (CharAt var44 307)))
(assert (= "1" (CharAt var56 467)))
(assert (= "n" (CharAt var12 602)))
(assert (= "/" (CharAt var10 206)))
(assert (= "_" (CharAt var58 641)))
(assert (= "j" (CharAt var59 391)))
(assert (= "4" (CharAt var21 293)))
(assert (= "(" (CharAt var37 970)))
(assert (= "h" (CharAt var0 335)))
(assert (= "," (CharAt var23 44)))
(assert (= "N" (CharAt var50 52)))
(assert (= "{" (CharAt var41 975)))
(assert (= "9" (CharAt var32 728)))
(assert (= "q" (CharAt var11 422)))
(assert (= "E" (CharAt var51 866)))
(assert (= "y" (CharAt var41 137)))
(assert (= ")" (CharAt var22 279)))
(assert (= "7" (CharAt var11 341)))
(assert (= "." (CharAt var52 175)))
(assert (= "-" (CharAt var58 71)))
(assert (= "v" (CharAt var30 570)))
(assert (= "u" (CharAt var30 353)))
(assert (= "#" (CharAt var31 278)))
(assert (= "d" (CharAt var59 930)))
(assert (= "c" (CharAt var37 785)))
(assert (= "h" (CharAt var18 270)))
(assert (= "Z" (CharAt var11 838)))
(assert (= "X" (CharAt var18 172)))
(assert (= "D" (CharAt var16 988)))
(assert (= "y" (CharAt var8 555)))
(assert (= "d" (CharAt var31 46)))
(assert (= "c" (CharAt var51 816)))
(assert (= ")" (CharAt var5 875)))
(assert (= "A" (CharAt var38 562)))
(assert (= "R" (CharAt var38 280)))
(assert (= "?" (CharAt var46 113)))
(assert (= "^" (CharAt var27 545)))
(assert (= "!" (CharAt var44 83)))
(assert (= "*" (CharAt var1 881)))
(assert (= "u" (CharAt var8 190)))
(assert (= "1" (CharAt var32 780)))
(assert (= "S" (CharAt var38 912)))
(assert (= "z" (CharAt var1 304)))
(assert (= "j" (CharAt var31 174)))
(assert (= "<" (CharAt var58 132)))
(assert (= "s" (CharAt var35 481)))
(assert (= "\"" (CharAt var49 687)))
(assert (= "d" (CharAt var55 75)))
(assert (= "K" (CharAt var33 611)))
(assert (= "=" (CharAt var51 66)))
(assert (= "<" (CharAt var10 212)))
(assert (= "K" (CharAt var24 665)))
(assert (= "l" (CharAt var17 342)))
(assert (= "f" (CharAt var34 701)))
(assert (= "<" (CharAt var36 591)))
(assert (= "l" (CharAt var39 561)))
(assert (= "*" (CharAt var13 701)))
(assert (= "&" (CharAt var53 875)))
(assert (= "`" (CharAt var30 452)))
(assert (= "A" (CharAt var44 343)))
(assert (= "-" (CharAt var0 104)))
(assert (= "S" (CharAt var8 832)))
(assert (= "(" (CharAt var1 889)))
(assert (= "G" (CharAt var20 720)))
(assert (= "7" (CharAt var9 213)))
(assert (= "9" (CharAt var52 623)))
(assert (= "?" (CharAt var38 230)))
(assert (= "\"" (CharAt var22 579)))
(assert (= "a" (CharAt var8 493)))
(assert (= "}" (CharAt var29 229)))
(assert (= "c" (CharAt var47 907)))
(assert (= "x" (CharAt var33 68)))
(assert (= "H" (CharAt var6 97)))
(assert (= "H" (CharAt var33 919)))
(assert (= "%" (CharAt var56 571)))
(assert (= "d" (CharAt var11 154)))
(assert (= "&" (CharAt var25 459)))
(assert (= "%" (CharAt var8 758)))
(assert (= "a" (CharAt var26 249)))
(assert (= "D" (CharAt var4 777)))
(assert (= "V" (CharAt var23 501)))
(assert (= "]" (CharAt var37 919)))
(assert (= "J" (CharAt var55 88)))
(assert (= "-" (CharAt var21 956)))
(assert (= "r" (CharAt var36 796)))
(assert (= "8" (CharAt var58 29)))
(assert (= "'" (CharAt var44 114)))
(assert (= "_" (CharAt var5 380)))
(assert (= "R" (CharAt var49 902)))
(assert (= "?" (CharAt var38 834)))
(assert (= "r" (CharAt var39 751)))
(assert (= "`" (CharAt var51 529)))
(assert (= "D" (CharAt var19 199)))
(assert (= "I" (CharAt var54 232)))
(assert (= "D" (CharAt var16 860)))
(assert (= "~" (CharAt var46 529)))
(assert (= "u" (CharAt var51 48)))
(assert (= "3" (CharAt var10 790)))
(assert (= "~" (CharAt var24 70)))
(assert (= "V" (CharAt var52 389)))
(assert (= "A" (CharAt var9 350)))
(assert (= "f" (CharAt var27 200)))
(assert (= "," (CharAt var16 644)))
(assert (= "9" (CharAt var26 219)))
(assert (= "-" (CharAt var43 551)))
(assert (= "v" (CharAt var30 376)))
(assert (= "w" (CharAt var1 373)))
(assert (= "B" (CharAt var25 670)))
(assert (= "d" (CharAt var50 556)))
(assert (= "|" (CharAt var7 932)))
(assert (= "G" (CharAt var0 223)))
(assert (= "-" (CharAt var46 577)))
(assert (= "i" (CharAt var10 965)))
(assert (= "%" (CharAt var28 341)))
(assert (= "K" (CharAt var12 733)))
(assert (= "d" (CharAt var6 521)))
(assert (= "%" (CharAt var17 269)))
(assert (= "L" (CharAt var46 873)))
(assert (= "{" (CharAt var23 594)))
(assert (= "D" (CharAt var40 160)))
(assert (= "b" (CharAt var6 836)))
(assert (= "^" (CharAt var40 76)))
(assert (= "!" (CharAt var0 913)))
(assert (= "F" (CharAt var31 866)))
(assert (= "d" (CharAt var15 145)))
(assert (= "@" (CharAt var47 63)))
(assert (= "8" (CharAt var2 117)))
(assert (= "J" (CharAt var7 133)))
(assert (= "y" (CharAt var42 761)))
(assert (= "k" (CharAt var26 404)))
(assert (= "}" (CharAt var44 812)))
(assert (= "4" (CharAt var45 422)))
(assert (= "u" (CharAt var12 132)))
(assert (= "9" (CharAt var8 731)))
(assert (= "C" (CharAt var12 212)))
(assert (= "[" (CharAt var43 237)))
(assert (= "C" (CharAt var25 308)))
(assert (= "R" (CharAt var43 328)))
(assert (= "T" (CharAt var46 294)))
(assert (= "u" (CharAt var20 509)))
(assert (= "r" (CharAt var36 941)))
(assert (= "j" (CharAt var7 132)))
(assert (= "1" (CharAt var55 492)))
(assert (= "X" (CharAt var41 979)))
(assert (= "K" (CharAt var5 391)))
(assert (= "*" (CharAt var19 712)))
(assert (= "u" (CharAt var20 309)))
(assert (= "p" (CharAt var26 411)))
(assert (= "h" (CharAt var18 58)))
(assert (= "B" (CharAt var10 623)))
(assert (= "D" (CharAt var3 433)))
(assert (= "e" (CharAt var30 628)))
(assert (= "s" (CharAt var2 318)))
(assert (= "e" (CharAt var0 954)))
(assert (= "(" (CharAt var60 86)))
(assert (= "k" (CharAt var22 277)))
(assert (= "m" (CharAt var9 828)))
(assert (= "O" (CharAt var45 876)))
(assert (= "2" (CharAt var52 54)))
(assert (= "f" (CharAt var53 88)))
(assert (= "v" (CharAt var11 421)))
(assert (= "z" (CharAt var48 216)))
(assert (= "w" (CharAt var36 102)))
(assert (= "V" (CharAt var18 867)))
(assert (= "t" (CharAt var13 381)))
(assert (= "w" (CharAt var21 297)))
(assert (= "'" (CharAt var42 148)))
(assert (= "4" (CharAt var18 850)))
(assert (= "A" (CharAt var56 556)))
(assert (= "U" (CharAt var34 603)))
(assert (= "?" (CharAt var55 279)))
(assert (= "(" (CharAt var11 980)))
(assert (= "M" (CharAt var0 501)))
(assert (= "D" (CharAt var14 539)))
(assert (= "g" (CharAt var11 670)))
(assert (= "b" (CharAt var9 565)))
(assert (= "1" (CharAt var59 593)))
(assert (= "`" (CharAt var28 386)))
(assert (= "@" (CharAt var25 245)))
(assert (= "U" (CharAt var23 784)))
(assert (= "%" (CharAt var53 630)))
(assert (= "\"" (CharAt var14 55)))
(assert (= "E" (CharAt var3 279)))
(assert (= "@" (CharAt var60 563)))
(assert (= "Z" (CharAt var39 515)))
(assert (= "Q" (CharAt var41 378)))
(assert (= "t" (CharAt var54 853)))
(assert (= "o" (CharAt var9 153)))
(assert (= "A" (CharAt var40 222)))
(assert (= "[" (CharAt var57 509)))
(assert (= "Y" (CharAt var10 946)))
(assert (= "y" (CharAt var44 544)))
(assert (= "U" (CharAt var52 347)))
(assert (= "," (CharAt var6 472)))
(assert (= "k" (CharAt var42 201)))
(assert (= "_" (CharAt var18 73)))
(assert (= "4" (CharAt var10 585)))
(assert (= "S" (CharAt var56 60)))
(assert (= "|" (CharAt var34 604)))
(assert (= "c" (CharAt var27 99)))
(assert (= "V" (CharAt var10 956)))
(assert (= "%" (CharAt var20 816)))
(assert (= "v" (CharAt var14 108)))
(assert (= "i" (CharAt var55 363)))
(assert (= "s" (CharAt var52 693)))
(assert (= "I" (CharAt var55 682)))
(assert (= "0" (CharAt var2 461)))
(assert (= "5" (CharAt var24 580)))
(assert (= "3" (CharAt var59 884)))
(assert (= "g" (CharAt var53 532)))
(assert (= "k" (CharAt var15 53)))
(assert (= "(" (CharAt var33 449)))
(assert (= "Z" (CharAt var39 873)))
(assert (= "a" (CharAt var4 703)))
(assert (= "U" (CharAt var18 104)))
(assert (= "X" (CharAt var56 299)))
(assert (= "x" (CharAt var50 904)))
(assert (= "M" (CharAt var45 64)))
(assert (= "f" (CharAt var26 779)))
(assert (= "h" (CharAt var7 739)))
(assert (= "&" (CharAt var21 936)))
(assert (= "b" (CharAt var17 502)))
(assert (= "[" (CharAt var5 454)))
(assert (= "T" (CharAt var53 708)))
(assert (= "4" (CharAt var59 307)))
(assert (= "*" (CharAt var25 772)))
(assert (= "0" (CharAt var10 375)))
(assert (= "_" (CharAt var43 228)))
(assert (= "$" (CharAt var15 968)))
(assert (= "W" (CharAt var50 646)))
(assert (= "j" (CharAt var24 582)))
(assert (= "@" (CharAt var43 907)))
(assert (= "a" (CharAt var16 338)))
(assert (= "X" (CharAt var60 507)))
(assert (= "n" (CharAt var45 464)))
(assert (= "q" (CharAt var4 9)))
(assert (= "F" (CharAt var51 384)))
(assert (= "y" (CharAt var57 548)))
(assert (= "a" (CharAt var1 76)))
(assert (= "7" (CharAt var13 4)))
(assert (= "?" (CharAt var48 566)))
(assert (= "a" (CharAt var44 860)))
(assert (= "k" (CharAt var46 944)))
(assert (= "d" (CharAt var58 980)))
(assert (= "x" (CharAt var54 958)))
(assert (= "I" (CharAt var2 732)))
(assert (= "=" (CharAt var55 855)))
(assert (= "x" (CharAt var60 548)))
(assert (= "n" (CharAt var35 107)))
(assert (= "'" (CharAt var4 480)))
(assert (= "4" (CharAt var3 921)))
(assert (= "(" (CharAt var40 123)))
(assert (= "Y" (CharAt var11 372)))
(assert (= "w" (CharAt var40 130)))
(assert (= "{" (CharAt var15 905)))
(assert (= "p" (CharAt var35 575)))
(assert (= "g" (CharAt var18 519)))
(assert (= "8" (CharAt var32 342)))
(assert (= "A" (CharAt var49 76)))
(assert (= ")" (CharAt var57 537)))
(assert (= "@" (CharAt var24 656)))
(assert (= "[" (CharAt var51 974)))
(assert (= "f" (CharAt var7 229)))
(assert (= "g" (CharAt var23 230)))
(assert (= "." (CharAt var39 67)))
(assert (= "," (CharAt var28 645)))
(assert (= "%" (CharAt var55 890)))
(assert (= "i" (CharAt var41 848)))
(assert (= "=" (CharAt var60 322)))
(assert (= "a" (CharAt var31 964)))
(assert (= "v" (CharAt var55 878)))
(assert (= "c" (CharAt var34 533)))
(assert (= "H" (CharAt var60 142)))
(assert (= "S" (CharAt var22 531)))
(assert (= "v" (CharAt var30 856)))
(assert (= "4" (CharAt var27 432)))
(assert (= "x" (CharAt var46 448)))
(assert (= "A" (CharAt var17 843)))
(assert (= "]" (CharAt var22 94)))
(assert (= "^" (CharAt var41 649)))
(assert (= "I" (CharAt var45 380)))
(assert (= "l" (CharAt var48 17)))
(assert (= "V" (CharAt var54 859)))
(assert (= "@" (CharAt var34 222)))
(assert (= "3" (CharAt var22 833)))
(assert (= "-" (CharAt var44 13)))
(assert (= "\"" (CharAt var46 609)))
(assert (= "j" (CharAt var27 668)))
(assert (= "G" (CharAt var13 435)))
(assert (= "?" (CharAt var49 994)))
(assert (= "X" (CharAt var26 114)))
(assert (= "|" (CharAt var50 380)))
(assert (= ";" (CharAt var4 270)))
(assert (= "]" (CharAt var51 870)))
(assert (= "2" (CharAt var52 683)))
(assert (= "f" (CharAt var58 267)))
(assert (= "F" (CharAt var44 340)))
(assert (= "-" (CharAt var25 160)))
(assert (= "'" (CharAt var11 327)))
(assert (= "[" (CharAt var50 535)))
(assert (= "Z" (CharAt var3 841)))
(assert (= "8" (CharAt var55 6)))
(assert (= "1" (CharAt var4 108)))
(assert (= "J" (CharAt var22 563)))
(assert (= "J" (CharAt var9 814)))
(assert (= "+" (CharAt var51 618)))
(assert (= "c" (CharAt var32 575)))
(assert (= "7" (CharAt var18 28)))
(assert (= "G" (CharAt var30 823)))
(assert (= "`" (CharAt var49 586)))
(assert (= "!" (CharAt var40 104)))
(assert (= "p" (CharAt var23 38)))
(assert (= "J" (CharAt var35 660)))
(assert (= "g" (CharAt var11 756)))
(assert (= "m" (CharAt var9 489)))
(assert (= "6" (CharAt var56 751)))
(assert (= "d" (CharAt var3 867)))
(assert (= "b" (CharAt var45 283)))
(assert (= "{" (CharAt var39 630)))
(assert (= "@" (CharAt var52 647)))
(assert (= "'" (CharAt var51 545)))
(assert (= "M" (CharAt var48 483)))
(assert (= "V" (CharAt var18 329)))
(assert (= "W" (CharAt var2 923)))
(assert (= "o" (CharAt var3 769)))
(assert (= "8" (CharAt var6 326)))
(assert (= "/" (CharAt var7 166)))
(assert (= "9" (CharAt var53 15)))
(assert (= "k" (CharAt var51 246)))
(assert (= "#" (CharAt var42 12)))
(assert (= "!" (CharAt var30 512)))
(assert (= "S" (CharAt var32 536)))
(assert (= "u" (CharAt var52 276)))
(assert (= "`" (CharAt var23 223)))
(assert (= "U" (CharAt var56 170)))
(assert (= "j" (CharAt var0 213)))
(assert (= "y" (CharAt var18 302)))
(assert (= "V" (CharAt var36 320)))
(assert (= "," (CharAt var34 669)))
(assert (= ")" (CharAt var43 206)))
(assert (= "{" (CharAt var39 768)))
(assert (= "6" (CharAt var4 784)))
(assert (= "." (CharAt var59 163)))
(assert (= "q" (CharAt var7 359)))
(assert (= "c" (CharAt var2 755)))
(assert (= "F" (CharAt var59 988)))
(assert (= "J" (CharAt var20 554)))
(assert (= "q" (CharAt var36 773)))
(assert (= "0" (CharAt var31 371)))
(assert (= "l" (CharAt var44 208)))
(assert (= "@" (CharAt var34 599)))
(assert (= "F" (CharAt var3 951)))
(assert (= "'" (CharAt var10 9)))
(assert (= "?" (CharAt var53 848)))
(assert (= "A" (CharAt var30 716)))
(assert (= "." (CharAt var29 422)))
(assert (= "," (CharAt var33 140)))
(assert (= "H" (CharAt var5 678)))
(assert (= "/" (CharAt var42 946)))
(assert (= "h" (CharAt var2 277)))
(assert (= "`" (CharAt var36 959)))
(assert (= "-" (CharAt var47 962)))
(assert (= "+" (CharAt var52 604)))
(assert (= "-" (CharAt var58 396)))
(assert (= "L" (CharAt var13 671)))
(assert (= "4" (CharAt var51 907)))
(assert (= "/" (CharAt var29 682)))
(assert (= "k" (CharAt var9 291)))
(assert (= "r" (CharAt var43 617)))
(assert (= "w" (CharAt var45 731)))
(check-sat)